192092 183050 
191541 183556 
191729 183394 
191503 183574 
191049 183987 
191377 183692 
191581 183525 
191242 183824 
190482 184511 
190694 184304 
190775 184258 
189206 185568 
189368 185426 
190367 184598 
190294 184660 
189214 185566 
190432 184540 
188859 185843 
189143 185625 
189973 184928 
188164 186376 
188332 186249 
190341 184623 
190270 184682 
187815 186608 
188673 185982 
188788 185902 
188233 186346 
188401 186219 
189055 185710 
188451 186173 
189902 184987 
188903 185815 
190054 184882 
189499 185326 
189667 185199 
187015 187125 
187423 186866 
187144 187068 
187597 186747 
187700 186708 
187319 186945 
187543 186788 
187466 186835 
187875 186585 
188099 186428 
188022 186475 
187487 186818 
186913 187184 
